CPXPARAM_Emphasis_MIP#P8#1#CPXPARAM_MIP_Cuts_GUBCovers#P17#0#3.228063#0.393481
CPXPARAM_Emphasis_MIP#P8#1#CPXPARAM_MIP_Cuts_GUBCovers#P17#1#3.729919#0.454654
CPXPARAM_Emphasis_MIP#P8#1#CPXPARAM_MIP_Cuts_GUBCovers#P17#2#2.788919#0.339952
CPXPARAM_Emphasis_MIP#P8#3#CPXPARAM_MIP_Cuts_GUBCovers#P17#0#4.312912#0.525717
CPXPARAM_Emphasis_MIP#P8#5#CPXPARAM_MIP_Cuts_GUBCovers#P17#0#4.312937#0.525720
CPXPARAM_Emphasis_MIP#P8#5#CPXPARAM_MIP_Cuts_GUBCovers#P17#1#8.203869#1.000000
